c Sudoku solution
p cnf 729 0
131 0
193 0
217 0
262 0
295 0
323 0
359 0
364 0
372 0
398 0
454 0
512 0
122 0
546 0
579 0
621 0
638 0
643 0
253 0
751 0
767 0
827 0
896 0
913 0
811 0
863 0
929 0
799 0
849 0
975 0
271 0
248 0
341 0
118 0
239 0
224 0
189 0
174 0
286 0
387 0
728 0
525 0
426 0
419 0
614 0
669 0
773 0
782 0
878 0
884 0
676 0
477 0
692 0
491 0
594 0
685 0
561 0
442 0
465 0
657 0
558 0
433 0
537 0
488 0
583 0
944 0
745 0
852 0
734 0
716 0
835 0
932 0
315 0
336 0
147 0
155 0
166 0
956 0
968 0
981 0
997 0
